100 100
33 43 74 32 69 67 64 26 45 45 34 33 62 70 34 73 54 37 63 28 55 32 28 72 53 56 52 54 63 63
67 44 34 33 67 67 72 27 73 51 33 68 45 48 54 34 73 64 64 47 58 26 44 41 67 51 26 25 51 31
2211 1892 2516 1056 4623 4489 4608 702 3285 2295 1122 2244 2790 3360 1836 2482 3942 2368 4032 1316 3190 832 1232 2952 3551 2856 1352 1350 3213 1953